20
69
10
0 2
0 4
0 12
0 16
1 3
1 5
1 7
1 9
1 11
1 13
1 15
1 17
1 19
2 4
2 6
2 8
2 10
2 12
2 16
3 5
3 7
3 9
3 11
3 15
3 17
3 19
4 6
4 8
4 10
4 12
4 14
4 16
5 7
5 9
5 11
5 15
5 19
6 8
6 10
6 12
6 14
6 16
7 9
7 11
7 15
7 19
8 10
9 11
9 13
9 15
9 17
9 19
10 12
10 14
11 13
11 15
11 17
11 19
12 14
12 16
12 18
13 15
13 17
13 19
14 16
15 17
15 19
16 18
17 19
0 1
2 3
4 5
6 7
8 9
10 11
12 13
14 15
16 17
18 19
